c description: There is a graph of 6 vertices with a 2-clique and a 5-coloring
c generator: CNFgen (0.9.0)
c copyright: (C) 2012-2020 Massimo Lauria <massimo.lauria@uniroma1.it>
c url: https://massimolauria.net/cnfgen
c
p cnf 57 209
-16 -17 0
-16 -18 0
-16 -19 0
-16 -20 0
-16 -21 0
-17 -18 0
-17 -19 0
-17 -20 0
-17 -21 0
-18 -19 0
-18 -20 0
-18 -21 0
-19 -20 0
-19 -21 0
-20 -21 0
16 17 18 19 20 21 0
-22 -23 0
-22 -24 0
-22 -25 0
-22 -26 0
-22 -27 0
-23 -24 0
-23 -25 0
-23 -26 0
-23 -27 0
-24 -25 0
-24 -26 0
-24 -27 0
-25 -26 0
-25 -27 0
-26 -27 0
22 23 24 25 26 27 0
-16 -22 0
-17 -23 0
-18 -24 0
-19 -25 0
-20 -26 0
-21 -27 0
1 -16 -23 0
1 -22 -17 0
2 -16 -24 0
2 -22 -18 0
3 -16 -25 0
3 -22 -19 0
4 -16 -26 0
4 -22 -20 0
5 -16 -27 0
5 -22 -21 0
6 -17 -24 0
6 -23 -18 0
7 -17 -25 0
7 -23 -19 0
8 -17 -26 0
8 -23 -20 0
9 -17 -27 0
9 -23 -21 0
10 -18 -25 0
10 -24 -19 0
11 -18 -26 0
11 -24 -20 0
12 -18 -27 0
12 -24 -21 0
13 -19 -26 0
13 -25 -20 0
14 -19 -27 0
14 -25 -21 0
15 -20 -27 0
15 -26 -21 0
-28 -29 0
-28 -30 0
-28 -31 0
-28 -32 0
-29 -30 0
-29 -31 0
-29 -32 0
-30 -31 0
-30 -32 0
-31 -32 0
28 29 30 31 32 0
-33 -34 0
-33 -35 0
-33 -36 0
-33 -37 0
-34 -35 0
-34 -36 0
-34 -37 0
-35 -36 0
-35 -37 0
-36 -37 0
33 34 35 36 37 0
-38 -39 0
-38 -40 0
-38 -41 0
-38 -42 0
-39 -40 0
-39 -41 0
-39 -42 0
-40 -41 0
-40 -42 0
-41 -42 0
38 39 40 41 42 0
-43 -44 0
-43 -45 0
-43 -46 0
-43 -47 0
-44 -45 0
-44 -46 0
-44 -47 0
-45 -46 0
-45 -47 0
-46 -47 0
43 44 45 46 47 0
-48 -49 0
-48 -50 0
-48 -51 0
-48 -52 0
-49 -50 0
-49 -51 0
-49 -52 0
-50 -51 0
-50 -52 0
-51 -52 0
48 49 50 51 52 0
-53 -54 0
-53 -55 0
-53 -56 0
-53 -57 0
-54 -55 0
-54 -56 0
-54 -57 0
-55 -56 0
-55 -57 0
-56 -57 0
53 54 55 56 57 0
-1 -28 -33 0
-1 -29 -34 0
-1 -30 -35 0
-1 -31 -36 0
-1 -32 -37 0
-2 -28 -38 0
-2 -29 -39 0
-2 -30 -40 0
-2 -31 -41 0
-2 -32 -42 0
-3 -28 -43 0
-3 -29 -44 0
-3 -30 -45 0
-3 -31 -46 0
-3 -32 -47 0
-4 -28 -48 0
-4 -29 -49 0
-4 -30 -50 0
-4 -31 -51 0
-4 -32 -52 0
-5 -28 -53 0
-5 -29 -54 0
-5 -30 -55 0
-5 -31 -56 0
-5 -32 -57 0
-6 -33 -38 0
-6 -34 -39 0
-6 -35 -40 0
-6 -36 -41 0
-6 -37 -42 0
-7 -33 -43 0
-7 -34 -44 0
-7 -35 -45 0
-7 -36 -46 0
-7 -37 -47 0
-8 -33 -48 0
-8 -34 -49 0
-8 -35 -50 0
-8 -36 -51 0
-8 -37 -52 0
-9 -33 -53 0
-9 -34 -54 0
-9 -35 -55 0
-9 -36 -56 0
-9 -37 -57 0
-10 -38 -43 0
-10 -39 -44 0
-10 -40 -45 0
-10 -41 -46 0
-10 -42 -47 0
-11 -38 -48 0
-11 -39 -49 0
-11 -40 -50 0
-11 -41 -51 0
-11 -42 -52 0
-12 -38 -53 0
-12 -39 -54 0
-12 -40 -55 0
-12 -41 -56 0
-12 -42 -57 0
-13 -43 -48 0
-13 -44 -49 0
-13 -45 -50 0
-13 -46 -51 0
-13 -47 -52 0
-14 -43 -53 0
-14 -44 -54 0
-14 -45 -55 0
-14 -46 -56 0
-14 -47 -57 0
-15 -48 -53 0
-15 -49 -54 0
-15 -50 -55 0
-15 -51 -56 0
-15 -52 -57 0